solving instance uflp nldep holmberg 45 exp
Couenne 0.5.8 -- an Open-Source solver for Mixed Integer Nonlinear Optimization
Mailing list: couenne@list.coin-or.org
Instructions: http://www.coin-or.org/Couenne
couenne: 
ANALYSIS TEST: Reformulating problem: 0.7 seconds
NLP0012I 
              Num      Status      Obj             It       time                 Location
NLP0014I             1         OPT 4572.2177       62 36.450633
NLP0014I             2         OPT 5171.8632       51 0.955962
Loaded instance "/tmp/jl_SWcftf/model.nl"
Constraints:         1720
Variables:           1660 (20 integer)
Auxiliaries:          219 (0 integer)

Coin0506I Presolve 1980 (-61) rows, 1700 (-179) columns and 7000 (-1859) elements
Clp0006I 0  Obj 0 Primal inf 9070.2651 (300)
Clp0006I 114  Obj 863 Primal inf 233.80783 (125)
Clp0006I 228  Obj 2804.4019 Primal inf 168.62574 (412)
Clp0006I 342  Obj 4441.487 Primal inf 323.3651 (28)
Clp0006I 380  Obj 4567.1842
Clp0000I Optimal - objective value 4567.1842
Clp0032I Optimal objective 4567.184197 - 380 iterations time 0.032, Presolve 0.01
Clp0000I Optimal - objective value 4567.1842
NLP Heuristic: time limit reached.
Clp0000I Optimal - objective value 4567.1842
Optimality Based BT: 0 improved bounds
Probing: 0 improved bounds
NLP Heuristic: time limit reached.
Cbc0031I 10 added rows had average density of 2
Cbc0013I At root node, 10 cuts changed objective from 4567.1842 to 4567.2193 in 2 passes
Cbc0014I Cut generator 0 (Couenne convexifier cuts) - 10 row cuts average 2.0 elements, 0 column cuts (0 active)
Cbc0010I After 0 nodes, 1 on tree, 1e+50 best solution, best possible -1.7976931e+308 (4.89 seconds)
Optimality Based BT: 0 improved bounds
Optimality Based BT: 0 improved bounds
Optimality Based BT: 0 improved bounds
Optimality Based BT: 0 improved bounds
Optimality Based BT: 0 improved bounds
Cbc0010I After 100 nodes, 50 on tree, 1e+50 best solution, best possible 4569.787 (50.54 seconds)
Cbc0010I After 200 nodes, 100 on tree, 1e+50 best solution, best possible 4569.787 (53.20 seconds)
Couenne: new cutoff value 4.5722191731e+03 (92.9718 seconds)
Cbc0004I Integer solution of 4572.2192 found after 8755 iterations and 258 nodes (54.51 seconds)
Cbc0001I Search completed - best objective 4572.21917311235, took 9273 iterations and 272 nodes (54.95 seconds)
Cbc0035I Maximum depth 129, 0 variables fixed on reduced cost

 	"Finished"

Linearization cuts added at root node:       2041
Linearization cuts added in total:           2041  (separation time: 0.009811s)
Total solve time:                         54.9852s (54.9852s in branch-and-bound)
Lower bound:                              4572.22
Upper bound:                              4572.22  (gap: 0.00%)
Branch-and-bound nodes:                       272
Stats: /tmp/jl_SWcftf/model.nl 1660 [var]   20 [int] 1720 [con]  219 [aux]   2041 [root]     2041 [tot] 0.009811 [sep]  54.9852 [time]   54.987 [bb]         4.572219e+03 [lower]         4.572219e+03 [upper]     272 [nodes]
Performance of                           FBBT:	    1.13356s,      440 runs. fix:          0 shrnk:   0.618067 ubd:          0 2ubd:          0 infeas:          0
Performance of                           OBBT:	    8.76867s,        6 runs. fix:          0 shrnk:          0 ubd:          0 2ubd:          0 infeas:          0
ERROR: LoadError: MathOptInterface.GetAttributeNotAllowed{MathOptInterface.ObjectiveBound}: Getting attribute MathOptInterface.ObjectiveBound() cannot be performed: AmplNLWriter.Optimizer does not support getting the attribute MathOptInterface.ObjectiveBound(). You may want to use a `CachingOptimizer` in `AUTOMATIC` mode or you may need to call `reset_optimizer` before doing this operation if the `CachingOptimizer` is in `MANUAL` mode.
Stacktrace:
  [1] get_fallback(model::AmplNLWriter.Optimizer, attr::MathOptInterface.ObjectiveBound)
    @ MathOptInterface ~/.julia/packages/MathOptInterface/gLl4d/src/attributes.jl:409
  [2] get(::AmplNLWriter.Optimizer, ::MathOptInterface.ObjectiveBound)
    @ MathOptInterface ~/.julia/packages/MathOptInterface/gLl4d/src/attributes.jl:390
  [3] _get_model_attribute(model::MathOptInterface.Utilities.CachingOptimizer{AmplNLWriter.Optimizer, MathOptInterface.Utilities.UniversalFallback{MathOptInterface.Utilities.Model{Float64}}}, attr::MathOptInterface.ObjectiveBound)
    @ MathOptInterface.Utilities ~/.julia/packages/MathOptInterface/gLl4d/src/Utilities/cachingoptimizer.jl:865
  [4] get(model::MathOptInterface.Utilities.CachingOptimizer{AmplNLWriter.Optimizer, MathOptInterface.Utilities.UniversalFallback{MathOptInterface.Utilities.Model{Float64}}}, attr::MathOptInterface.ObjectiveBound)
    @ MathOptInterface.Utilities ~/.julia/packages/MathOptInterface/gLl4d/src/Utilities/cachingoptimizer.jl:900
  [5] get(b::MathOptInterface.Bridges.LazyBridgeOptimizer{MathOptInterface.Utilities.CachingOptimizer{AmplNLWriter.Optimizer, MathOptInterface.Utilities.UniversalFallback{MathOptInterface.Utilities.Model{Float64}}}}, attr::MathOptInterface.ObjectiveBound)
    @ MathOptInterface.Bridges ~/.julia/packages/MathOptInterface/gLl4d/src/Bridges/bridge_optimizer.jl:889
  [6] _get_model_attribute(model::MathOptInterface.Utilities.CachingOptimizer{MathOptInterface.Bridges.LazyBridgeOptimizer{MathOptInterface.Utilities.CachingOptimizer{AmplNLWriter.Optimizer, MathOptInterface.Utilities.UniversalFallback{MathOptInterface.Utilities.Model{Float64}}}}, MathOptInterface.Utilities.UniversalFallback{MathOptInterface.Utilities.Model{Float64}}}, attr::MathOptInterface.ObjectiveBound)
    @ MathOptInterface.Utilities ~/.julia/packages/MathOptInterface/gLl4d/src/Utilities/cachingoptimizer.jl:865
  [7] get(model::MathOptInterface.Utilities.CachingOptimizer{MathOptInterface.Bridges.LazyBridgeOptimizer{MathOptInterface.Utilities.CachingOptimizer{AmplNLWriter.Optimizer, MathOptInterface.Utilities.UniversalFallback{MathOptInterface.Utilities.Model{Float64}}}}, MathOptInterface.Utilities.UniversalFallback{MathOptInterface.Utilities.Model{Float64}}}, attr::MathOptInterface.ObjectiveBound)
    @ MathOptInterface.Utilities ~/.julia/packages/MathOptInterface/gLl4d/src/Utilities/cachingoptimizer.jl:900
  [8] _moi_get_result(model::MathOptInterface.Utilities.CachingOptimizer{MathOptInterface.Bridges.LazyBridgeOptimizer{MathOptInterface.Utilities.CachingOptimizer{AmplNLWriter.Optimizer, MathOptInterface.Utilities.UniversalFallback{MathOptInterface.Utilities.Model{Float64}}}}, MathOptInterface.Utilities.UniversalFallback{MathOptInterface.Utilities.Model{Float64}}}, args::MathOptInterface.ObjectiveBound)
    @ JuMP ~/.julia/packages/JuMP/i68GU/src/optimizer_interface.jl:1053
  [9] get(model::JuMP.Model, attr::MathOptInterface.ObjectiveBound)
    @ JuMP ~/.julia/packages/JuMP/i68GU/src/optimizer_interface.jl:1073
 [10] objective_bound(model::JuMP.Model)
    @ JuMP ~/.julia/packages/JuMP/i68GU/src/objective.jl:78
 [11] nl_uflp_nldep(filename::String, cost::Symbol, solver::AmplNLWriter.Optimizer, solver_params::Vector{Any}; solve::Bool, write_nl::Bool, with_cap_constraint::Bool)
    @ IterativePWLB ~/git/ipwlb/code/sources/IterativePWLB/src/nlsolver.jl:783
 [12] top-level scope
    @ ~/git/ipwlb/code/sources/IterativePWLB/test/couenne/uflp_nldep/script.jl:15
in expression starting at /home/ccontard/git/ipwlb/code/sources/IterativePWLB/test/couenne/uflp_nldep/script.jl:15
reading holmberg data file /home/ccontard/git/ipwlb/code/instances/uflp/holmberg/p45
